--------------------------------------------------
s SATISFIABLE
benchmarks_SAT/INST_36x36/55/inst36x36_55_0.cnf : 26507 ms.
--------------------------------------------------
s SATISFIABLE
benchmarks_SAT/INST_36x36/55/inst36x36_55_10.cnf : 878 ms.
--------------------------------------------------
s SATISFIABLE
benchmarks_SAT/INST_36x36/55/inst36x36_55_11.cnf : 710 ms.
--------------------------------------------------
s SATISFIABLE
benchmarks_SAT/INST_36x36/55/inst36x36_55_12.cnf : 1223 ms.
--------------------------------------------------
s SATISFIABLE
benchmarks_SAT/INST_36x36/55/inst36x36_55_13.cnf : 1349 ms.
--------------------------------------------------
s SATISFIABLE
benchmarks_SAT/INST_36x36/55/inst36x36_55_14.cnf : 868 ms.
--------------------------------------------------
s SATISFIABLE
benchmarks_SAT/INST_36x36/55/inst36x36_55_15.cnf : 1728 ms.
--------------------------------------------------
s SATISFIABLE
benchmarks_SAT/INST_36x36/55/inst36x36_55_16.cnf : 675 ms.
--------------------------------------------------
s SATISFIABLE
benchmarks_SAT/INST_36x36/55/inst36x36_55_17.cnf : 1271 ms.
--------------------------------------------------
s SATISFIABLE
benchmarks_SAT/INST_36x36/55/inst36x36_55_18.cnf : 2170 ms.
--------------------------------------------------
s SATISFIABLE
benchmarks_SAT/INST_36x36/55/inst36x36_55_19.cnf : 1268 ms.
--------------------------------------------------
s SATISFIABLE
benchmarks_SAT/INST_36x36/55/inst36x36_55_1.cnf : 732 ms.
--------------------------------------------------
s SATISFIABLE
benchmarks_SAT/INST_36x36/55/inst36x36_55_20.cnf : 1267 ms.
--------------------------------------------------
s SATISFIABLE
benchmarks_SAT/INST_36x36/55/inst36x36_55_21.cnf : 690 ms.
--------------------------------------------------
s SATISFIABLE
benchmarks_SAT/INST_36x36/55/inst36x36_55_22.cnf : 706 ms.
--------------------------------------------------
s SATISFIABLE
benchmarks_SAT/INST_36x36/55/inst36x36_55_23.cnf : 853 ms.
--------------------------------------------------
s SATISFIABLE
benchmarks_SAT/INST_36x36/55/inst36x36_55_24.cnf : 705 ms.
--------------------------------------------------
s SATISFIABLE
benchmarks_SAT/INST_36x36/55/inst36x36_55_25.cnf : 875 ms.
--------------------------------------------------
s SATISFIABLE
benchmarks_SAT/INST_36x36/55/inst36x36_55_26.cnf : 1184 ms.
--------------------------------------------------
s SATISFIABLE
benchmarks_SAT/INST_36x36/55/inst36x36_55_27.cnf : 5808 ms.
--------------------------------------------------
s SATISFIABLE
benchmarks_SAT/INST_36x36/55/inst36x36_55_28.cnf : 1330 ms.
--------------------------------------------------
s SATISFIABLE
benchmarks_SAT/INST_36x36/55/inst36x36_55_29.cnf : 1123 ms.
--------------------------------------------------
s SATISFIABLE
benchmarks_SAT/INST_36x36/55/inst36x36_55_2.cnf : 1810 ms.
--------------------------------------------------
s SATISFIABLE
benchmarks_SAT/INST_36x36/55/inst36x36_55_30.cnf : 1279 ms.
--------------------------------------------------
s SATISFIABLE
benchmarks_SAT/INST_36x36/55/inst36x36_55_31.cnf : 714 ms.
--------------------------------------------------
s SATISFIABLE
benchmarks_SAT/INST_36x36/55/inst36x36_55_32.cnf : 2048 ms.
--------------------------------------------------
s SATISFIABLE
benchmarks_SAT/INST_36x36/55/inst36x36_55_33.cnf : 704 ms.
--------------------------------------------------
s SATISFIABLE
benchmarks_SAT/INST_36x36/55/inst36x36_55_34.cnf : 791 ms.
--------------------------------------------------
s SATISFIABLE
benchmarks_SAT/INST_36x36/55/inst36x36_55_35.cnf : 1686 ms.
--------------------------------------------------
s SATISFIABLE
benchmarks_SAT/INST_36x36/55/inst36x36_55_36.cnf : 888 ms.
--------------------------------------------------
s SATISFIABLE
benchmarks_SAT/INST_36x36/55/inst36x36_55_37.cnf : 1617 ms.
--------------------------------------------------
s SATISFIABLE
benchmarks_SAT/INST_36x36/55/inst36x36_55_38.cnf : 856 ms.
--------------------------------------------------
s SATISFIABLE
benchmarks_SAT/INST_36x36/55/inst36x36_55_39.cnf : 2011 ms.
--------------------------------------------------
s SATISFIABLE
benchmarks_SAT/INST_36x36/55/inst36x36_55_3.cnf : 680 ms.
--------------------------------------------------
s SATISFIABLE
benchmarks_SAT/INST_36x36/55/inst36x36_55_40.cnf : 1243 ms.
--------------------------------------------------
s SATISFIABLE
benchmarks_SAT/INST_36x36/55/inst36x36_55_41.cnf : 2002 ms.
--------------------------------------------------
s SATISFIABLE
benchmarks_SAT/INST_36x36/55/inst36x36_55_42.cnf : 714 ms.
--------------------------------------------------
s SATISFIABLE
benchmarks_SAT/INST_36x36/55/inst36x36_55_43.cnf : 1486 ms.
--------------------------------------------------
s SATISFIABLE
benchmarks_SAT/INST_36x36/55/inst36x36_55_44.cnf : 1158 ms.
--------------------------------------------------
s SATISFIABLE
benchmarks_SAT/INST_36x36/55/inst36x36_55_45.cnf : 14600 ms.
--------------------------------------------------
s SATISFIABLE
benchmarks_SAT/INST_36x36/55/inst36x36_55_46.cnf : 680 ms.
--------------------------------------------------
s SATISFIABLE
benchmarks_SAT/INST_36x36/55/inst36x36_55_47.cnf : 2364 ms.
--------------------------------------------------
s SATISFIABLE
benchmarks_SAT/INST_36x36/55/inst36x36_55_48.cnf : 855 ms.
--------------------------------------------------
s SATISFIABLE
benchmarks_SAT/INST_36x36/55/inst36x36_55_49.cnf : 768 ms.
--------------------------------------------------
s SATISFIABLE
benchmarks_SAT/INST_36x36/55/inst36x36_55_4.cnf : 729 ms.
--------------------------------------------------
s SATISFIABLE
benchmarks_SAT/INST_36x36/55/inst36x36_55_50.cnf : 1279 ms.
--------------------------------------------------
s SATISFIABLE
benchmarks_SAT/INST_36x36/55/inst36x36_55_51.cnf : 26644 ms.
--------------------------------------------------
s SATISFIABLE
benchmarks_SAT/INST_36x36/55/inst36x36_55_52.cnf : 851 ms.
--------------------------------------------------
s SATISFIABLE
benchmarks_SAT/INST_36x36/55/inst36x36_55_53.cnf : 811 ms.
--------------------------------------------------
s SATISFIABLE
benchmarks_SAT/INST_36x36/55/inst36x36_55_54.cnf : 9002 ms.
--------------------------------------------------
s SATISFIABLE
benchmarks_SAT/INST_36x36/55/inst36x36_55_55.cnf : 1278 ms.
--------------------------------------------------
s SATISFIABLE
benchmarks_SAT/INST_36x36/55/inst36x36_55_56.cnf : 1413 ms.
--------------------------------------------------
s SATISFIABLE
benchmarks_SAT/INST_36x36/55/inst36x36_55_57.cnf : 1366 ms.
--------------------------------------------------
s SATISFIABLE
benchmarks_SAT/INST_36x36/55/inst36x36_55_58.cnf : 870 ms.
--------------------------------------------------
s SATISFIABLE
benchmarks_SAT/INST_36x36/55/inst36x36_55_59.cnf : 3664 ms.
--------------------------------------------------
s SATISFIABLE
benchmarks_SAT/INST_36x36/55/inst36x36_55_5.cnf : 2136 ms.
--------------------------------------------------
s SATISFIABLE
benchmarks_SAT/INST_36x36/55/inst36x36_55_60.cnf : 1113 ms.
--------------------------------------------------
s SATISFIABLE
benchmarks_SAT/INST_36x36/55/inst36x36_55_61.cnf : 2134 ms.
--------------------------------------------------
s SATISFIABLE
benchmarks_SAT/INST_36x36/55/inst36x36_55_62.cnf : 1769 ms.
--------------------------------------------------
s SATISFIABLE
benchmarks_SAT/INST_36x36/55/inst36x36_55_63.cnf : 2009 ms.
--------------------------------------------------
s SATISFIABLE
benchmarks_SAT/INST_36x36/55/inst36x36_55_64.cnf : 1643 ms.
--------------------------------------------------
s SATISFIABLE
benchmarks_SAT/INST_36x36/55/inst36x36_55_65.cnf : 2741 ms.
--------------------------------------------------
s SATISFIABLE
benchmarks_SAT/INST_36x36/55/inst36x36_55_66.cnf : 1493 ms.
--------------------------------------------------
s SATISFIABLE
benchmarks_SAT/INST_36x36/55/inst36x36_55_67.cnf : 2748 ms.
--------------------------------------------------
s SATISFIABLE
benchmarks_SAT/INST_36x36/55/inst36x36_55_68.cnf : 1770 ms.
--------------------------------------------------
s SATISFIABLE
benchmarks_SAT/INST_36x36/55/inst36x36_55_69.cnf : 853 ms.
--------------------------------------------------
s SATISFIABLE
benchmarks_SAT/INST_36x36/55/inst36x36_55_6.cnf : 763 ms.
--------------------------------------------------
s SATISFIABLE
benchmarks_SAT/INST_36x36/55/inst36x36_55_70.cnf : 2020 ms.
--------------------------------------------------
s SATISFIABLE
benchmarks_SAT/INST_36x36/55/inst36x36_55_71.cnf : 1362 ms.
--------------------------------------------------
s SATISFIABLE
benchmarks_SAT/INST_36x36/55/inst36x36_55_72.cnf : 1126 ms.
--------------------------------------------------
s SATISFIABLE
benchmarks_SAT/INST_36x36/55/inst36x36_55_73.cnf : 19192 ms.
--------------------------------------------------
s SATISFIABLE
benchmarks_SAT/INST_36x36/55/inst36x36_55_74.cnf : 643 ms.
--------------------------------------------------
s SATISFIABLE
benchmarks_SAT/INST_36x36/55/inst36x36_55_75.cnf : 3178 ms.
--------------------------------------------------
s SATISFIABLE
benchmarks_SAT/INST_36x36/55/inst36x36_55_76.cnf : 5845 ms.
--------------------------------------------------
s SATISFIABLE
benchmarks_SAT/INST_36x36/55/inst36x36_55_77.cnf : 1181 ms.
--------------------------------------------------
s SATISFIABLE
benchmarks_SAT/INST_36x36/55/inst36x36_55_78.cnf : 855 ms.
--------------------------------------------------
s SATISFIABLE
benchmarks_SAT/INST_36x36/55/inst36x36_55_79.cnf : 2820 ms.
--------------------------------------------------
s SATISFIABLE
benchmarks_SAT/INST_36x36/55/inst36x36_55_7.cnf : 757 ms.
--------------------------------------------------
s SATISFIABLE
benchmarks_SAT/INST_36x36/55/inst36x36_55_80.cnf : 1217 ms.
--------------------------------------------------
s SATISFIABLE
benchmarks_SAT/INST_36x36/55/inst36x36_55_81.cnf : 2794 ms.
--------------------------------------------------
s SATISFIABLE
benchmarks_SAT/INST_36x36/55/inst36x36_55_82.cnf : 15389 ms.
--------------------------------------------------
s SATISFIABLE
benchmarks_SAT/INST_36x36/55/inst36x36_55_83.cnf : 1654 ms.
--------------------------------------------------
s SATISFIABLE
benchmarks_SAT/INST_36x36/55/inst36x36_55_84.cnf : 649 ms.
--------------------------------------------------
s SATISFIABLE
benchmarks_SAT/INST_36x36/55/inst36x36_55_85.cnf : 1289 ms.
--------------------------------------------------
s SATISFIABLE
benchmarks_SAT/INST_36x36/55/inst36x36_55_86.cnf : 1994 ms.
--------------------------------------------------
s SATISFIABLE
benchmarks_SAT/INST_36x36/55/inst36x36_55_87.cnf : 663 ms.
--------------------------------------------------
s SATISFIABLE
benchmarks_SAT/INST_36x36/55/inst36x36_55_88.cnf : 731 ms.
--------------------------------------------------
s SATISFIABLE
benchmarks_SAT/INST_36x36/55/inst36x36_55_89.cnf : 620 ms.
--------------------------------------------------
s SATISFIABLE
benchmarks_SAT/INST_36x36/55/inst36x36_55_8.cnf : 1808 ms.
--------------------------------------------------
s SATISFIABLE
benchmarks_SAT/INST_36x36/55/inst36x36_55_90.cnf : 799 ms.
--------------------------------------------------
s SATISFIABLE
benchmarks_SAT/INST_36x36/55/inst36x36_55_91.cnf : 774 ms.
--------------------------------------------------
s SATISFIABLE
benchmarks_SAT/INST_36x36/55/inst36x36_55_92.cnf : 1068 ms.
--------------------------------------------------
s SATISFIABLE
benchmarks_SAT/INST_36x36/55/inst36x36_55_93.cnf : 821 ms.
--------------------------------------------------
s SATISFIABLE
benchmarks_SAT/INST_36x36/55/inst36x36_55_94.cnf : 2922 ms.
--------------------------------------------------
s SATISFIABLE
benchmarks_SAT/INST_36x36/55/inst36x36_55_95.cnf : 814 ms.
--------------------------------------------------
s SATISFIABLE
benchmarks_SAT/INST_36x36/55/inst36x36_55_96.cnf : 629 ms.
--------------------------------------------------
s SATISFIABLE
benchmarks_SAT/INST_36x36/55/inst36x36_55_97.cnf : 1304 ms.
--------------------------------------------------
s SATISFIABLE
benchmarks_SAT/INST_36x36/55/inst36x36_55_98.cnf : 678 ms.
--------------------------------------------------
s SATISFIABLE
benchmarks_SAT/INST_36x36/55/inst36x36_55_99.cnf : 1138 ms.
--------------------------------------------------
s SATISFIABLE
benchmarks_SAT/INST_36x36/55/inst36x36_55_9.cnf : 819 ms.
